# Objective value = 31
S_KO 0
S_LE 0
S_AG 0
S_VF 0
S_TT 0
S_MK 0
S_PY 0
S_KZ 0
S_ST 0
S_DO 0
S_PH 0
S_TA 0
S_HO 0
S_AO 0
S_LL 0
S_GR 0
S_NL 0
S_PA 0
S_AL 0
S_AN 0
S_VR 1
S_AA 0
S_SE 0
S_ME 0
S_BT 0
S_TU 0
S_MX 0
S_SS 0
S_VS 0
S_PK 0
S_SM 0
S_LM 0
S_PT 0
S_CD 0
S_SP 0
S_YV 0
S_SV 0
S_MZ 0
S_NT 0
S_MP 0
S_SN 0
S_IV 0
S_FR 0
S_SU 0
S_NI 0
S_NS 0
y_0_KO_LE 0
w_0_KO 0
w_0_LE 0
y_1_KO_LE 0
y_1_KO_AG 0
y_1_LE_AG 0
w_1_KO 0
w_1_LE 0
w_1_AG 0
y_2_KO_LE 0
y_2_KO_AG 0
y_2_LE_AG 0
w_2_KO 0
w_2_LE 0
w_2_AG 1
y_3_KO_LE 0
y_3_KO_AG 0
y_3_KO_VF 0
y_3_LE_AG 0
y_3_LE_VF 0
y_3_AG_VF 0
w_3_KO 0
w_3_LE 0
w_3_AG 0
w_3_VF 0
y_4_KO_LE 0
y_4_KO_AG 0
y_4_KO_VF 0
y_4_LE_AG 0
y_4_LE_VF 0
y_4_AG_VF 0
w_4_KO 0
w_4_LE 0
w_4_AG 0
w_4_VF 0
y_5_KO_LE 0
y_5_KO_AG 0
y_5_KO_VF 0
y_5_LE_AG 0
y_5_LE_VF 0
y_5_AG_VF 0
w_5_KO 1
w_5_LE 0
w_5_AG 0
w_5_VF 0
y_6_KO_LE 0
y_6_KO_AG 0
y_6_KO_VF 0
y_6_LE_AG 0
y_6_LE_VF 0
y_6_AG_VF 0
w_6_KO 1
w_6_LE 0
w_6_AG 0
w_6_VF 0
y_7_KO_LE 0
y_7_KO_AG 0
y_7_KO_VF 0
y_7_LE_AG 0
y_7_LE_VF 0
y_7_AG_VF 0
w_7_KO 1
w_7_LE 0
w_7_AG 0
w_7_VF 0
y_8_LE_AG 0
y_8_LE_VF 0
y_8_AG_VF 0
w_8_LE 0
w_8_AG 0
w_8_VF 0
y_9_LE_AG 0
y_9_LE_VF 0
y_9_LE_DO 0
y_9_AG_VF 0
y_9_AG_DO 0
y_9_VF_DO 0
w_9_LE 0
w_9_AG 0
w_9_VF 0
w_9_DO 0
y_10_LE_AG 0
y_10_LE_VF 0
y_10_LE_DO 0
y_10_LE_PH 0
y_10_AG_VF 0
y_10_AG_DO 0
y_10_AG_PH 0
y_10_VF_DO 0
y_10_VF_PH 0
y_10_DO_PH 0
w_10_LE 0
w_10_AG 0
w_10_VF 0
w_10_DO 0
w_10_PH 0
y_11_LE_AG 0
y_11_LE_VF 0
y_11_LE_DO 0
y_11_LE_PH 0
y_11_LE_TA 0
y_11_LE_HO 0
y_11_AG_VF 0
y_11_AG_DO 0
y_11_AG_PH 0
y_11_AG_TA 0
y_11_AG_HO 0
y_11_VF_DO 0
y_11_VF_PH 0
y_11_VF_TA 0
y_11_VF_HO 0
y_11_DO_PH 0
y_11_DO_TA 0
y_11_DO_HO 0
y_11_PH_TA 0
y_11_PH_HO 0
y_11_TA_HO 0
w_11_LE 0
w_11_AG 0
w_11_VF 0
w_11_DO 1
w_11_PH 0
w_11_TA 1
w_11_HO 2
y_12_LE_AG 0
y_12_LE_VF 0
y_12_LE_DO 0
y_12_LE_PH 0
y_12_LE_TA 0
y_12_LE_HO 0
y_12_LE_LL 0
y_12_AG_VF 0
y_12_AG_DO 0
y_12_AG_PH 0
y_12_AG_TA 0
y_12_AG_HO 0
y_12_AG_LL 0
y_12_VF_DO 0
y_12_VF_PH 0
y_12_VF_TA 0
y_12_VF_HO 0
y_12_VF_LL 0
y_12_DO_PH 0
y_12_DO_TA 0
y_12_DO_HO 0
y_12_DO_LL 0
y_12_PH_TA 0
y_12_PH_HO 0
y_12_PH_LL 0
y_12_TA_HO 0
y_12_TA_LL 0
y_12_HO_LL 0
w_12_LE 0
w_12_AG 0
w_12_VF 0
w_12_DO 0
w_12_PH 0
w_12_TA 0
w_12_HO 0
w_12_LL 0
y_13_LE_AG 0
y_13_LE_VF 0
y_13_LE_DO 0
y_13_LE_PH 0
y_13_LE_TA 0
y_13_LE_LL 0
y_13_LE_GR 0
y_13_AG_VF 0
y_13_AG_DO 0
y_13_AG_PH 0
y_13_AG_TA 0
y_13_AG_LL 0
y_13_AG_GR 0
y_13_VF_DO 0
y_13_VF_PH 0
y_13_VF_TA 0
y_13_VF_LL 0
y_13_VF_GR 0
y_13_DO_PH 0
y_13_DO_TA 0
y_13_DO_LL 0
y_13_DO_GR 0
y_13_PH_TA 0
y_13_PH_LL 0
y_13_PH_GR 0
y_13_TA_LL 0
y_13_TA_GR 0
y_13_LL_GR 0
w_13_LE 0
w_13_AG 0
w_13_VF 0
w_13_DO 0
w_13_PH 0
w_13_TA 0
w_13_LL 0
w_13_GR 0
y_14_LE_AG 0
y_14_LE_VF 0
y_14_LE_DO 0
y_14_LE_TA 0
y_14_LE_GR 0
y_14_AG_VF 0
y_14_AG_DO 0
y_14_AG_TA 0
y_14_AG_GR 0
y_14_VF_DO 0
y_14_VF_TA 0
y_14_VF_GR 0
y_14_DO_TA 0
y_14_DO_GR 0
y_14_TA_GR 0
w_14_LE 2
w_14_AG 2
w_14_VF 2
w_14_DO 0
w_14_TA 0
w_14_GR 0
y_15_LE_AG 0
y_15_LE_VF 0
y_15_LE_DO 0
y_15_LE_TA 0
y_15_LE_GR 0
y_15_AG_VF 0
y_15_AG_DO 0
y_15_AG_TA 0
y_15_AG_GR 0
y_15_VF_DO 0
y_15_VF_TA 0
y_15_VF_GR 0
y_15_DO_TA 0
y_15_DO_GR 0
y_15_TA_GR 0
w_15_LE 0
w_15_AG 0
w_15_VF 0
w_15_DO 0
w_15_TA 0
w_15_GR 0
y_16_LE_AG 0
y_16_LE_VF 0
y_16_LE_DO 0
y_16_AG_VF 0
y_16_AG_DO 0
y_16_VF_DO 0
w_16_LE 0
w_16_AG 0
w_16_VF 0
w_16_DO 1
y_17_LE_AG 0
y_17_LE_VF 0
y_17_LE_DO 0
y_17_AG_VF 0
y_17_AG_DO 0
y_17_VF_DO 0
w_17_LE 0
w_17_AG 0
w_17_VF 0
w_17_DO 1
y_18_LE_AG 0
y_18_LE_VF 0
y_18_AG_VF 0
w_18_LE 0
w_18_AG 0
w_18_VF 0
y_19_LE_AG 0
y_19_LE_VF 0
y_19_LE_AL 0
y_19_LE_AN 0
y_19_AG_VF 0
y_19_AG_AL 0
y_19_AG_AN 0
y_19_VF_AL 0
y_19_VF_AN 0
y_19_AL_AN 0
w_19_LE 0
w_19_AG 0
w_19_VF 0
w_19_AL 0
w_19_AN 0
y_20_LE_AG 0
y_20_LE_VF 0
y_20_LE_AL 0
y_20_LE_AN 0
y_20_AG_VF 0
y_20_AG_AL 0
y_20_AG_AN 0
y_20_VF_AL 0
y_20_VF_AN 0
y_20_AL_AN 0
w_20_LE 0
w_20_AG 0
w_20_VF 0
w_20_AL 0
w_20_AN 1
y_21_LE_AG 0
y_21_LE_VF 0
y_21_LE_AL 0
y_21_LE_AN 0
y_21_LE_VR 0
y_21_AG_VF 0
y_21_AG_AL 0
y_21_AG_AN 0
y_21_AG_VR 0
y_21_VF_AL 0
y_21_VF_AN 0
y_21_VF_VR 0
y_21_AL_AN 0
y_21_AL_VR 0
y_21_AN_VR 0
w_21_LE 0
w_21_AG 0
w_21_VF 0
w_21_AL 0
w_21_AN 1
w_21_VR 0
y_22_LE_AG 0
y_22_LE_VF 0
y_22_LE_AL 0
y_22_LE_AN 0
y_22_LE_VR 0
y_22_LE_AA 0
y_22_AG_VF 0
y_22_AG_AL 0
y_22_AG_AN 0
y_22_AG_VR 0
y_22_AG_AA 0
y_22_VF_AL 0
y_22_VF_AN 0
y_22_VF_VR 0
y_22_VF_AA 0
y_22_AL_AN 0
y_22_AL_VR 0
y_22_AL_AA 0
y_22_AN_VR 0
y_22_AN_AA 0
y_22_VR_AA 0
w_22_LE 0
w_22_AG 0
w_22_VF 0
w_22_AL 0
w_22_AN 0
w_22_VR 0
w_22_AA 0
y_23_LE_AG 0
y_23_LE_VF 0
y_23_LE_AL 0
y_23_LE_AN 0
y_23_LE_VR 0
y_23_LE_AA 0
y_23_AG_VF 0
y_23_AG_AL 0
y_23_AG_AN 0
y_23_AG_VR 0
y_23_AG_AA 0
y_23_VF_AL 0
y_23_VF_AN 0
y_23_VF_VR 0
y_23_VF_AA 0
y_23_AL_AN 0
y_23_AL_VR 0
y_23_AL_AA 0
y_23_AN_VR 0
y_23_AN_AA 0
y_23_VR_AA 0
w_23_LE 0
w_23_AG 0
w_23_VF 0
w_23_AL 0
w_23_AN 0
w_23_VR 0
w_23_AA 0
y_24_LE_AG 0
y_24_LE_VF 0
y_24_LE_AL 0
y_24_LE_AN 0
y_24_LE_VR 0
y_24_AG_VF 0
y_24_AG_AL 0
y_24_AG_AN 0
y_24_AG_VR 0
y_24_VF_AL 0
y_24_VF_AN 0
y_24_VF_VR 0
y_24_AL_AN 0
y_24_AL_VR 0
y_24_AN_VR 0
w_24_LE 0
w_24_AG 0
w_24_VF 0
w_24_AL 0
w_24_AN 1
w_24_VR 0
y_25_LE_AG 0
y_25_LE_VF 0
y_25_LE_AL 0
y_25_LE_AN 0
y_25_LE_VR 0
y_25_LE_BT 0
y_25_LE_TU 0
y_25_AG_VF 0
y_25_AG_AL 0
y_25_AG_AN 0
y_25_AG_VR 0
y_25_AG_BT 0
y_25_AG_TU 0
y_25_VF_AL 0
y_25_VF_AN 0
y_25_VF_VR 0
y_25_VF_BT 0
y_25_VF_TU 0
y_25_AL_AN 0
y_25_AL_VR 0
y_25_AL_BT 0
y_25_AL_TU 0
y_25_AN_VR 0
y_25_AN_BT 0
y_25_AN_TU 0
y_25_VR_BT 0
y_25_VR_TU 0
y_25_BT_TU 0
w_25_LE 0
w_25_AG 0
w_25_VF 0
w_25_AL 0
w_25_AN 0
w_25_VR 0
w_25_BT 1
w_25_TU 0
y_26_LE_AG 0
y_26_LE_VF 0
y_26_LE_AL 0
y_26_LE_AN 0
y_26_LE_VR 0
y_26_LE_TU 0
y_26_LE_SM 0
y_26_LE_LM 0
y_26_AG_VF 0
y_26_AG_AL 0
y_26_AG_AN 0
y_26_AG_VR 0
y_26_AG_TU 0
y_26_AG_SM 0
y_26_AG_LM 0
y_26_VF_AL 0
y_26_VF_AN 0
y_26_VF_VR 0
y_26_VF_TU 0
y_26_VF_SM 0
y_26_VF_LM 0
y_26_AL_AN 0
y_26_AL_VR 0
y_26_AL_TU 0
y_26_AL_SM 0
y_26_AL_LM 0
y_26_AN_VR 0
y_26_AN_TU 0
y_26_AN_SM 0
y_26_AN_LM 0
y_26_VR_TU 0
y_26_VR_SM 0
y_26_VR_LM 0
y_26_TU_SM 0
y_26_TU_LM 0
y_26_SM_LM 0
w_26_LE 0
w_26_AG 0
w_26_VF 0
w_26_AL 0
w_26_AN 0
w_26_VR 0
w_26_TU 0
w_26_SM 0
w_26_LM 0
y_27_LE_AG 0
y_27_LE_VF 0
y_27_LE_AL 0
y_27_LE_AN 0
y_27_LE_VR 0
y_27_LE_SM 0
y_27_AG_VF 0
y_27_AG_AL 0
y_27_AG_AN 0
y_27_AG_VR 0
y_27_AG_SM 0
y_27_VF_AL 0
y_27_VF_AN 0
y_27_VF_VR 0
y_27_VF_SM 0
y_27_AL_AN 0
y_27_AL_VR 0
y_27_AL_SM 0
y_27_AN_VR 1
y_27_AN_SM 0
y_27_VR_SM 1
w_27_LE 0
w_27_AG 0
w_27_VF 0
w_27_AL 0
w_27_AN 2
w_27_VR 2
w_27_SM 2
y_28_LE_AG 0
y_28_LE_VF 0
y_28_LE_AL 0
y_28_LE_AN 0
y_28_LE_VR 0
y_28_LE_SM 0
y_28_LE_PT 0
y_28_AG_VF 0
y_28_AG_AL 0
y_28_AG_AN 0
y_28_AG_VR 0
y_28_AG_SM 0
y_28_AG_PT 0
y_28_VF_AL 0
y_28_VF_AN 0
y_28_VF_VR 0
y_28_VF_SM 0
y_28_VF_PT 0
y_28_AL_AN 0
y_28_AL_VR 0
y_28_AL_SM 0
y_28_AL_PT 0
y_28_AN_VR 0
y_28_AN_SM 0
y_28_AN_PT 0
y_28_VR_SM 0
y_28_VR_PT 0
y_28_SM_PT 0
w_28_LE 0
w_28_AG 0
w_28_VF 0
w_28_AL 0
w_28_AN 0
w_28_VR 0
w_28_SM 0
w_28_PT 0
y_29_LE_AG 0
y_29_LE_VF 0
y_29_LE_AL 0
y_29_LE_AN 0
y_29_LE_VR 0
y_29_LE_SM 0
y_29_LE_PT 0
y_29_AG_VF 0
y_29_AG_AL 0
y_29_AG_AN 0
y_29_AG_VR 0
y_29_AG_SM 0
y_29_AG_PT 0
y_29_VF_AL 0
y_29_VF_AN 0
y_29_VF_VR 0
y_29_VF_SM 0
y_29_VF_PT 0
y_29_AL_AN 0
y_29_AL_VR 0
y_29_AL_SM 0
y_29_AL_PT 0
y_29_AN_VR 0
y_29_AN_SM 0
y_29_AN_PT 0
y_29_VR_SM 0
y_29_VR_PT 0
y_29_SM_PT 0
w_29_LE 0
w_29_AG 0
w_29_VF 0
w_29_AL 0
w_29_AN 0
w_29_VR 0
w_29_SM 0
w_29_PT 0
y_30_LE_AG 0
y_30_LE_VF 0
y_30_LE_AL 0
y_30_LE_AN 0
y_30_LE_VR 0
y_30_LE_SM 0
y_30_AG_VF 0
y_30_AG_AL 0
y_30_AG_AN 0
y_30_AG_VR 0
y_30_AG_SM 0
y_30_VF_AL 0
y_30_VF_AN 0
y_30_VF_VR 0
y_30_VF_SM 0
y_30_AL_AN 0
y_30_AL_VR 0
y_30_AL_SM 0
y_30_AN_VR 0
y_30_AN_SM 0
y_30_VR_SM 0
w_30_LE 0
w_30_AG 0
w_30_VF 0
w_30_AL 0
w_30_AN 0
w_30_VR 0
w_30_SM 0
y_31_LE_AG 0
y_31_LE_VF 0
y_31_LE_AL 0
y_31_LE_AN 0
y_31_LE_SM 0
y_31_AG_VF 0
y_31_AG_AL 0
y_31_AG_AN 0
y_31_AG_SM 0
y_31_VF_AL 0
y_31_VF_AN 0
y_31_VF_SM 0
y_31_AL_AN 0
y_31_AL_SM 0
y_31_AN_SM 0
w_31_LE 0
w_31_AG 0
w_31_VF 0
w_31_AL 0
w_31_AN 0
w_31_SM 0
y_32_LE_AG 0
y_32_LE_VF 0
y_32_LE_AL 0
y_32_LE_AN 0
y_32_AG_VF 0
y_32_AG_AL 0
y_32_AG_AN 0
y_32_VF_AL 0
y_32_VF_AN 0
y_32_AL_AN 0
w_32_LE 0
w_32_AG 0
w_32_VF 0
w_32_AL 0
w_32_AN 1
y_33_LE_AG 0
y_33_LE_VF 0
y_33_AG_VF 0
w_33_LE 0
w_33_AG 0
w_33_VF 0
y_34_LE_AG 0
y_34_LE_VF 0
y_34_AG_VF 0
w_34_LE 0
w_34_AG 0
w_34_VF 0
y_35_LE_AG 0
y_35_LE_VF 0
y_35_AG_VF 0
w_35_LE 0
w_35_AG 0
w_35_VF 0
y_36_LE_AG 0
y_36_LE_VF 0
y_36_LE_SV 0
y_36_AG_VF 0
y_36_AG_SV 0
y_36_VF_SV 0
w_36_LE 0
w_36_AG 0
w_36_VF 0
w_36_SV 0
y_37_LE_AG 0
y_37_LE_VF 0
y_37_LE_SV 0
y_37_AG_VF 0
y_37_AG_SV 0
y_37_VF_SV 0
w_37_LE 0
w_37_AG 0
w_37_VF 0
w_37_SV 0
y_38_LE_AG 0
y_38_LE_VF 0
y_38_AG_VF 0
w_38_LE 0
w_38_AG 0
w_38_VF 0
y_39_LE_AG 0
y_39_LE_VF 0
y_39_AG_VF 0
w_39_LE 0
w_39_AG 0
w_39_VF 0
y_40_LE_AG 0
y_40_LE_VF 0
y_40_AG_VF 0
w_40_LE 0
w_40_AG 0
w_40_VF 0
y_41_LE_AG 0
y_41_LE_VF 0
y_41_AG_VF 0
w_41_LE 0
w_41_AG 0
w_41_VF 0
y_42_LE_AG 0
y_42_LE_VF 0
y_42_AG_VF 0
w_42_LE 0
w_42_AG 0
w_42_VF 0
y_43_LE_AG 0
w_43_LE 1
w_43_AG 0
y_44_LE_AG 0
w_44_LE 0
w_44_AG 0
y_45_LE_NI 0
w_45_LE 0
w_45_NI 0
w_46_LE 0
x_0_KO_LE 1
x_1_KO_LE 1
x_2_KO_LE 1
x_1_KO_AG 1
x_2_KO_AG 1
x_1_LE_AG 1
x_2_LE_AG 1
x_3_KO_LE 1
x_3_KO_AG 1
x_3_LE_AG 1
x_4_KO_LE 1
x_4_KO_AG 1
x_3_KO_VF 1
x_4_KO_VF 1
x_4_LE_AG 1
x_3_LE_VF 1
x_4_LE_VF 1
x_3_AG_VF 0
x_4_AG_VF 0
x_5_KO_LE 1
x_5_KO_AG 1
x_5_KO_VF 1
x_5_LE_AG 1
x_5_LE_VF 1
x_5_AG_VF 0
x_6_KO_LE 1
x_6_KO_AG 1
x_6_KO_VF 1
x_6_LE_AG 1
x_6_LE_VF 1
x_6_AG_VF 0
x_7_KO_LE 1
x_7_KO_AG 1
x_7_KO_VF 1
x_7_LE_AG 1
x_7_LE_VF 1
x_7_AG_VF 0
x_8_KO_LE 1
x_8_KO_AG 1
x_8_KO_VF 1
x_8_LE_AG 1
x_8_LE_VF 1
x_8_AG_VF 0
x_9_LE_AG 1
x_9_LE_VF 1
x_9_AG_VF 0
x_10_LE_AG 1
x_10_LE_VF 1
x_9_LE_DO 0
x_10_LE_DO 0
x_10_AG_VF 0
x_9_AG_DO 0
x_10_AG_DO 0
x_9_VF_DO 0
x_10_VF_DO 0
x_11_LE_AG 1
x_11_LE_VF 1
x_11_LE_DO 0
x_10_LE_PH 0
x_11_LE_PH 0
x_11_AG_VF 0
x_11_AG_DO 0
x_10_AG_PH 0
x_11_AG_PH 0
x_11_VF_DO 0
x_10_VF_PH 0
x_11_VF_PH 0
x_10_DO_PH 1
x_11_DO_PH 1
x_12_LE_AG 1
x_12_LE_VF 1
x_12_LE_DO 0
x_12_LE_PH 0
x_11_LE_TA 0
x_12_LE_TA 0
x_11_LE_HO 0
x_12_LE_HO 0
x_12_AG_VF 0
x_12_AG_DO 0
x_12_AG_PH 0
x_11_AG_TA 0
x_12_AG_TA 0
x_11_AG_HO 0
x_12_AG_HO 0
x_12_VF_DO 0
x_12_VF_PH 0
x_11_VF_TA 0
x_12_VF_TA 0
x_11_VF_HO 0
x_12_VF_HO 0
x_12_DO_PH 1
x_11_DO_TA 0
x_12_DO_TA 0
x_11_DO_HO 0
x_12_DO_HO 0
x_11_PH_TA 0
x_12_PH_TA 0
x_11_PH_HO 0
x_12_PH_HO 0
x_11_TA_HO 0
x_12_TA_HO 0
x_13_LE_AG 1
x_13_LE_VF 1
x_13_LE_DO 0
x_13_LE_PH 0
x_13_LE_TA 0
x_13_LE_HO 0
x_12_LE_LL 0
x_13_LE_LL 0
x_13_AG_VF 0
x_13_AG_DO 0
x_13_AG_PH 0
x_13_AG_TA 0
x_13_AG_HO 0
x_12_AG_LL 0
x_13_AG_LL 0
x_13_VF_DO 0
x_13_VF_PH 0
x_13_VF_TA 0
x_13_VF_HO 0
x_12_VF_LL 0
x_13_VF_LL 0
x_13_DO_PH 1
x_13_DO_TA 0
x_13_DO_HO 0
x_12_DO_LL 1
x_13_DO_LL 1
x_13_PH_TA 0
x_13_PH_HO 0
x_12_PH_LL 0
x_13_PH_LL 0
x_13_TA_HO 0
x_12_TA_LL 1
x_13_TA_LL 1
x_12_HO_LL 1
x_13_HO_LL 1
x_14_LE_AG 1
x_14_LE_VF 1
x_14_LE_DO 0
x_14_LE_PH 0
x_14_LE_TA 0
x_14_LE_LL 0
x_13_LE_GR 0
x_14_LE_GR 0
x_14_AG_VF 0
x_14_AG_DO 0
x_14_AG_PH 0
x_14_AG_TA 0
x_14_AG_LL 0
x_13_AG_GR 0
x_14_AG_GR 0
x_14_VF_DO 0
x_14_VF_PH 0
x_14_VF_TA 0
x_14_VF_LL 0
x_13_VF_GR 0
x_14_VF_GR 0
x_14_DO_PH 1
x_14_DO_TA 0
x_14_DO_LL 1
x_13_DO_GR 0
x_14_DO_GR 0
x_14_PH_TA 0
x_14_PH_LL 0
x_13_PH_GR 0
x_14_PH_GR 0
x_14_TA_LL 1
x_13_TA_GR 0
x_14_TA_GR 0
x_13_LL_GR 0
x_14_LL_GR 0
x_15_LE_AG 1
x_15_LE_VF 1
x_15_LE_DO 0
x_15_LE_TA 0
x_15_LE_GR 0
x_15_AG_VF 0
x_15_AG_DO 0
x_15_AG_TA 0
x_15_AG_GR 0
x_15_VF_DO 0
x_15_VF_TA 0
x_15_VF_GR 0
x_15_DO_TA 0
x_15_DO_GR 0
x_15_TA_GR 0
x_16_LE_AG 1
x_16_LE_VF 1
x_16_LE_DO 0
x_16_LE_TA 0
x_16_LE_GR 0
x_16_AG_VF 0
x_16_AG_DO 0
x_16_AG_TA 0
x_16_AG_GR 0
x_16_VF_DO 0
x_16_VF_TA 0
x_16_VF_GR 0
x_16_DO_TA 0
x_16_DO_GR 0
x_16_TA_GR 0
x_17_LE_AG 1
x_17_LE_VF 1
x_17_LE_DO 0
x_17_AG_VF 0
x_17_AG_DO 0
x_17_VF_DO 0
x_18_LE_AG 1
x_18_LE_VF 1
x_18_LE_DO 0
x_18_AG_VF 0
x_18_AG_DO 0
x_18_VF_DO 0
x_19_LE_AG 1
x_19_LE_VF 1
x_19_AG_VF 0
x_20_LE_AG 1
x_20_LE_VF 1
x_19_LE_AL 1
x_20_LE_AL 1
x_19_LE_AN 1
x_20_LE_AN 1
x_20_AG_VF 0
x_19_AG_AL 1
x_20_AG_AL 1
x_19_AG_AN 1
x_20_AG_AN 1
x_19_VF_AL 1
x_20_VF_AL 1
x_19_VF_AN 1
x_20_VF_AN 1
x_19_AL_AN 1
x_20_AL_AN 1
x_21_LE_AG 1
x_21_LE_VF 1
x_21_LE_AL 1
x_21_LE_AN 1
x_21_AG_VF 0
x_21_AG_AL 1
x_21_AG_AN 1
x_21_VF_AL 1
x_21_VF_AN 1
x_21_AL_AN 1
x_22_LE_AG 1
x_22_LE_VF 1
x_22_LE_AL 1
x_22_LE_AN 1
x_21_LE_VR 1
x_22_LE_VR 1
x_22_AG_VF 0
x_22_AG_AL 1
x_22_AG_AN 1
x_21_AG_VR 1
x_22_AG_VR 1
x_22_VF_AL 1
x_22_VF_AN 1
x_21_VF_VR 1
x_22_VF_VR 1
x_22_AL_AN 1
x_21_AL_VR 1
x_22_AL_VR 1
x_21_AN_VR 0
x_22_AN_VR 0
x_23_LE_AG 1
x_23_LE_VF 1
x_23_LE_AL 1
x_23_LE_AN 1
x_23_LE_VR 1
x_22_LE_AA 1
x_23_LE_AA 1
x_23_AG_VF 0
x_23_AG_AL 1
x_23_AG_AN 1
x_23_AG_VR 1
x_22_AG_AA 1
x_23_AG_AA 1
x_23_VF_AL 1
x_23_VF_AN 1
x_23_VF_VR 1
x_22_VF_AA 1
x_23_VF_AA 1
x_23_AL_AN 1
x_23_AL_VR 1
x_22_AL_AA 1
x_23_AL_AA 1
x_23_AN_VR 0
x_22_AN_AA 0
x_23_AN_AA 0
x_22_VR_AA 1
x_23_VR_AA 1
x_24_LE_AG 1
x_24_LE_VF 1
x_24_LE_AL 1
x_24_LE_AN 1
x_24_LE_VR 1
x_24_LE_AA 1
x_24_AG_VF 0
x_24_AG_AL 1
x_24_AG_AN 1
x_24_AG_VR 1
x_24_AG_AA 1
x_24_VF_AL 1
x_24_VF_AN 1
x_24_VF_VR 1
x_24_VF_AA 1
x_24_AL_AN 1
x_24_AL_VR 1
x_24_AL_AA 1
x_24_AN_VR 0
x_24_AN_AA 0
x_24_VR_AA 1
x_25_LE_AG 1
x_25_LE_VF 1
x_25_LE_AL 1
x_25_LE_AN 1
x_25_LE_VR 1
x_25_AG_VF 0
x_25_AG_AL 1
x_25_AG_AN 1
x_25_AG_VR 1
x_25_VF_AL 1
x_25_VF_AN 1
x_25_VF_VR 1
x_25_AL_AN 1
x_25_AL_VR 1
x_25_AN_VR 0
x_26_LE_AG 1
x_26_LE_VF 1
x_26_LE_AL 1
x_26_LE_AN 1
x_26_LE_VR 1
x_25_LE_BT 1
x_26_LE_BT 1
x_25_LE_TU 1
x_26_LE_TU 1
x_26_AG_VF 0
x_26_AG_AL 1
x_26_AG_AN 1
x_26_AG_VR 1
x_25_AG_BT 1
x_26_AG_BT 1
x_25_AG_TU 1
x_26_AG_TU 1
x_26_VF_AL 1
x_26_VF_AN 1
x_26_VF_VR 1
x_25_VF_BT 1
x_26_VF_BT 1
x_25_VF_TU 1
x_26_VF_TU 1
x_26_AL_AN 1
x_26_AL_VR 1
x_25_AL_BT 1
x_26_AL_BT 1
x_25_AL_TU 1
x_26_AL_TU 1
x_26_AN_VR 0
x_25_AN_BT 1
x_26_AN_BT 1
x_25_AN_TU 0
x_26_AN_TU 0
x_25_VR_BT 1
x_26_VR_BT 1
x_25_VR_TU 1
x_26_VR_TU 1
x_25_BT_TU 0
x_26_BT_TU 0
x_27_LE_AG 1
x_27_LE_VF 1
x_27_LE_AL 1
x_27_LE_AN 1
x_27_LE_VR 1
x_27_LE_TU 1
x_26_LE_SM 1
x_27_LE_SM 1
x_26_LE_LM 1
x_27_LE_LM 1
x_27_AG_VF 0
x_27_AG_AL 1
x_27_AG_AN 1
x_27_AG_VR 1
x_27_AG_TU 1
x_26_AG_SM 1
x_27_AG_SM 1
x_26_AG_LM 1
x_27_AG_LM 1
x_27_VF_AL 1
x_27_VF_AN 1
x_27_VF_VR 1
x_27_VF_TU 1
x_26_VF_SM 1
x_27_VF_SM 1
x_26_VF_LM 1
x_27_VF_LM 1
x_27_AL_AN 1
x_27_AL_VR 1
x_27_AL_TU 1
x_26_AL_SM 1
x_27_AL_SM 1
x_26_AL_LM 1
x_27_AL_LM 1
x_27_AN_VR 0
x_27_AN_TU 0
x_26_AN_SM 0
x_27_AN_SM 0
x_26_AN_LM 1
x_27_AN_LM 1
x_27_VR_TU 1
x_26_VR_SM 1
x_27_VR_SM 1
x_26_VR_LM 1
x_27_VR_LM 1
x_26_TU_SM 1
x_27_TU_SM 1
x_26_TU_LM 1
x_27_TU_LM 1
x_26_SM_LM 1
x_27_SM_LM 1
x_28_LE_AG 1
x_28_LE_VF 1
x_28_LE_AL 1
x_28_LE_AN 1
x_28_LE_VR 1
x_28_LE_SM 1
x_28_AG_VF 0
x_28_AG_AL 1
x_28_AG_AN 1
x_28_AG_VR 1
x_28_AG_SM 1
x_28_VF_AL 1
x_28_VF_AN 1
x_28_VF_VR 1
x_28_VF_SM 1
x_28_AL_AN 1
x_28_AL_VR 1
x_28_AL_SM 1
x_28_AN_VR 1
x_28_AN_SM 0
x_28_VR_SM 0
x_29_LE_AG 1
x_29_LE_VF 1
x_29_LE_AL 1
x_29_LE_AN 1
x_29_LE_VR 1
x_29_LE_SM 1
x_28_LE_PT 1
x_29_LE_PT 1
x_29_AG_VF 0
x_29_AG_AL 1
x_29_AG_AN 1
x_29_AG_VR 1
x_29_AG_SM 1
x_28_AG_PT 1
x_29_AG_PT 1
x_29_VF_AL 1
x_29_VF_AN 1
x_29_VF_VR 1
x_29_VF_SM 1
x_28_VF_PT 1
x_29_VF_PT 1
x_29_AL_AN 1
x_29_AL_VR 1
x_29_AL_SM 1
x_28_AL_PT 1
x_29_AL_PT 1
x_29_AN_VR 1
x_29_AN_SM 0
x_28_AN_PT 1
x_29_AN_PT 1
x_29_VR_SM 0
x_28_VR_PT 1
x_29_VR_PT 1
x_28_SM_PT 1
x_29_SM_PT 1
x_30_LE_AG 1
x_30_LE_VF 1
x_30_LE_AL 1
x_30_LE_AN 1
x_30_LE_VR 1
x_30_LE_SM 1
x_30_LE_PT 1
x_30_AG_VF 0
x_30_AG_AL 1
x_30_AG_AN 1
x_30_AG_VR 1
x_30_AG_SM 1
x_30_AG_PT 1
x_30_VF_AL 1
x_30_VF_AN 1
x_30_VF_VR 1
x_30_VF_SM 1
x_30_VF_PT 1
x_30_AL_AN 1
x_30_AL_VR 1
x_30_AL_SM 1
x_30_AL_PT 1
x_30_AN_VR 1
x_30_AN_SM 0
x_30_AN_PT 1
x_30_VR_SM 0
x_30_VR_PT 1
x_30_SM_PT 1
x_31_LE_AG 1
x_31_LE_VF 1
x_31_LE_AL 1
x_31_LE_AN 1
x_31_LE_VR 1
x_31_LE_SM 1
x_31_AG_VF 0
x_31_AG_AL 1
x_31_AG_AN 1
x_31_AG_VR 1
x_31_AG_SM 1
x_31_VF_AL 1
x_31_VF_AN 1
x_31_VF_VR 1
x_31_VF_SM 1
x_31_AL_AN 1
x_31_AL_VR 1
x_31_AL_SM 1
x_31_AN_VR 1
x_31_AN_SM 0
x_31_VR_SM 0
x_32_LE_AG 1
x_32_LE_VF 1
x_32_LE_AL 1
x_32_LE_AN 1
x_32_LE_SM 1
x_32_AG_VF 0
x_32_AG_AL 1
x_32_AG_AN 1
x_32_AG_SM 1
x_32_VF_AL 1
x_32_VF_AN 1
x_32_VF_SM 1
x_32_AL_AN 1
x_32_AL_SM 1
x_32_AN_SM 0
x_33_LE_AG 1
x_33_LE_VF 1
x_33_LE_AL 1
x_33_LE_AN 1
x_33_AG_VF 0
x_33_AG_AL 1
x_33_AG_AN 1
x_33_VF_AL 1
x_33_VF_AN 1
x_33_AL_AN 1
x_34_LE_AG 1
x_34_LE_VF 1
x_34_AG_VF 0
x_35_LE_AG 1
x_35_LE_VF 1
x_35_AG_VF 0
x_36_LE_AG 1
x_36_LE_VF 1
x_36_AG_VF 0
x_37_LE_AG 1
x_37_LE_VF 1
x_36_LE_SV 0
x_37_LE_SV 0
x_37_AG_VF 0
x_36_AG_SV 0
x_37_AG_SV 0
x_36_VF_SV 0
x_37_VF_SV 0
x_38_LE_AG 1
x_38_LE_VF 1
x_38_LE_SV 0
x_38_AG_VF 0
x_38_AG_SV 0
x_38_VF_SV 0
x_39_LE_AG 1
x_39_LE_VF 1
x_39_AG_VF 0
x_40_LE_AG 1
x_40_LE_VF 1
x_40_AG_VF 0
x_41_LE_AG 1
x_41_LE_VF 1
x_41_AG_VF 0
x_42_LE_AG 1
x_42_LE_VF 1
x_42_AG_VF 0
x_43_LE_AG 1
x_43_LE_VF 1
x_43_AG_VF 0
x_44_LE_AG 1
x_45_LE_AG 1
x_45_LE_NI 0
x_46_LE_NI 0
b_0 45
b_1 44
x_0_LE_KO 0
x_1_LE_KO 0
b_2 44
x_2_LE_KO 0
x_1_AG_KO 0
x_1_AG_LE 0
x_2_AG_KO 0
x_2_AG_LE 0
b_3 43
x_3_LE_KO 0
x_3_AG_KO 0
x_3_AG_LE 0
b_4 43
x_4_LE_KO 0
x_4_AG_KO 0
x_4_AG_LE 0
x_3_VF_KO 0
x_3_VF_LE 0
x_3_VF_AG 1
x_4_VF_KO 0
x_4_VF_LE 0
x_4_VF_AG 1
b_5 43
x_5_LE_KO 0
x_5_AG_KO 0
x_5_AG_LE 0
x_5_VF_KO 0
x_5_VF_LE 0
x_5_VF_AG 1
x_6_KO_TT 1
b_6 43
x_6_LE_KO 0
x_6_LE_TT 0
x_6_AG_KO 0
x_6_AG_LE 0
x_6_AG_TT 0
x_6_VF_KO 0
x_6_VF_LE 0
x_6_VF_AG 1
x_6_VF_TT 0
x_7_KO_MK 1
x_7_KO_PY 1
b_7 43
x_7_LE_KO 0
x_7_LE_MK 0
x_7_LE_PY 0
x_7_AG_KO 0
x_7_AG_LE 0
x_7_AG_MK 0
x_7_AG_PY 0
x_7_VF_KO 0
x_7_VF_LE 0
x_7_VF_AG 1
x_7_VF_MK 0
x_7_VF_PY 0
x_8_KO_KZ 1
b_8 43
x_8_LE_KO 0
x_8_LE_KZ 0
x_8_AG_KO 0
x_8_AG_LE 0
x_8_AG_KZ 0
x_8_VF_KO 0
x_8_VF_LE 0
x_8_VF_AG 1
x_8_VF_KZ 0
x_9_LE_ST 0
b_9 43
x_9_AG_LE 0
x_9_AG_ST 0
x_9_VF_LE 0
x_9_VF_AG 1
x_9_VF_ST 0
b_10 43
x_10_AG_LE 0
x_10_VF_LE 0
x_10_VF_AG 1
x_9_DO_LE 1
x_9_DO_AG 1
x_9_DO_VF 1
x_9_DO_ST 1
x_10_DO_LE 1
x_10_DO_AG 1
x_10_DO_VF 1
b_11 43
x_11_AG_LE 0
x_11_VF_LE 0
x_11_VF_AG 1
x_11_DO_LE 1
x_11_DO_AG 1
x_11_DO_VF 1
x_10_PH_LE 1
x_10_PH_AG 1
x_10_PH_VF 1
x_10_PH_DO 0
x_11_PH_LE 1
x_11_PH_AG 1
x_11_PH_VF 1
x_11_PH_DO 0
x_12_LE_AO 0
b_12 43
x_12_AG_LE 0
x_12_AG_AO 0
x_12_VF_LE 0
x_12_VF_AG 1
x_12_VF_AO 0
x_12_DO_LE 1
x_12_DO_AG 1
x_12_DO_VF 1
x_12_DO_AO 0
x_12_PH_LE 1
x_12_PH_AG 1
x_12_PH_VF 1
x_12_PH_DO 0
x_12_PH_AO 0
x_11_TA_LE 1
x_11_TA_AG 1
x_11_TA_VF 1
x_11_TA_DO 1
x_11_TA_PH 1
x_12_TA_LE 1
x_12_TA_AG 1
x_12_TA_VF 1
x_12_TA_DO 1
x_12_TA_PH 1
x_12_TA_AO 0
x_11_HO_LE 1
x_11_HO_AG 1
x_11_HO_VF 1
x_11_HO_DO 1
x_11_HO_PH 1
x_11_HO_TA 1
x_12_HO_LE 1
x_12_HO_AG 1
x_12_HO_VF 1
x_12_HO_DO 1
x_12_HO_PH 1
x_12_HO_TA 1
x_12_HO_AO 1
x_13_LE_NL 0
b_13 43
x_13_AG_LE 0
x_13_AG_NL 0
x_13_VF_LE 0
x_13_VF_AG 1
x_13_VF_NL 0
x_13_DO_LE 1
x_13_DO_AG 1
x_13_DO_VF 1
x_13_DO_NL 0
x_13_PH_LE 1
x_13_PH_AG 1
x_13_PH_VF 1
x_13_PH_DO 0
x_13_PH_NL 0
x_13_TA_LE 1
x_13_TA_AG 1
x_13_TA_VF 1
x_13_TA_DO 1
x_13_TA_PH 1
x_13_TA_NL 0
x_13_HO_LE 1
x_13_HO_AG 1
x_13_HO_VF 1
x_13_HO_DO 1
x_13_HO_PH 1
x_13_HO_TA 1
x_13_HO_GR 1
x_13_HO_NL 0
x_12_LL_LE 1
x_12_LL_AG 1
x_12_LL_VF 1
x_12_LL_DO 0
x_12_LL_PH 1
x_12_LL_TA 0
x_12_LL_HO 0
x_12_LL_AO 0
x_13_LL_LE 1
x_13_LL_AG 1
x_13_LL_VF 1
x_13_LL_DO 0
x_13_LL_PH 1
x_13_LL_TA 0
x_13_LL_HO 0
x_13_LL_NL 0
b_14 43
x_14_AG_LE 0
x_14_VF_LE 0
x_14_VF_AG 1
x_14_DO_LE 1
x_14_DO_AG 1
x_14_DO_VF 1
x_14_PH_LE 1
x_14_PH_AG 1
x_14_PH_VF 1
x_14_PH_DO 0
x_14_TA_LE 1
x_14_TA_AG 1
x_14_TA_VF 1
x_14_TA_DO 1
x_14_TA_PH 1
x_14_LL_LE 1
x_14_LL_AG 1
x_14_LL_VF 1
x_14_LL_DO 0
x_14_LL_PH 1
x_14_LL_TA 0
x_13_GR_LE 1
x_13_GR_AG 1
x_13_GR_VF 1
x_13_GR_DO 1
x_13_GR_PH 1
x_13_GR_TA 1
x_13_GR_HO 0
x_13_GR_LL 1
x_13_GR_NL 0
x_14_GR_LE 1
x_14_GR_AG 1
x_14_GR_VF 1
x_14_GR_DO 1
x_14_GR_PH 1
x_14_GR_TA 1
x_14_GR_LL 1
b_15 45
x_15_AG_LE 0
x_15_VF_LE 0
x_15_VF_AG 1
x_15_DO_LE 1
x_15_DO_AG 1
x_15_DO_VF 1
x_15_TA_LE 1
x_15_TA_AG 1
x_15_TA_VF 1
x_15_TA_DO 1
x_15_GR_LE 1
x_15_GR_AG 1
x_15_GR_VF 1
x_15_GR_DO 1
x_15_GR_TA 1
b_16 45
x_16_AG_LE 0
x_16_VF_LE 0
x_16_VF_AG 1
x_16_DO_LE 1
x_16_DO_AG 1
x_16_DO_VF 1
x_16_TA_LE 1
x_16_TA_AG 1
x_16_TA_VF 1
x_16_TA_DO 1
x_16_GR_LE 1
x_16_GR_AG 1
x_16_GR_VF 1
x_16_GR_DO 1
x_16_GR_TA 1
x_17_LE_PA 0
b_17 45
x_17_AG_LE 0
x_17_AG_PA 0
x_17_VF_LE 0
x_17_VF_AG 1
x_17_VF_PA 0
x_17_DO_LE 1
x_17_DO_AG 1
x_17_DO_VF 1
x_17_DO_PA 1
b_18 45
x_18_AG_LE 0
x_18_VF_LE 0
x_18_VF_AG 1
x_18_DO_LE 1
x_18_DO_AG 1
x_18_DO_VF 1
b_19 43
x_19_AG_LE 0
x_19_VF_LE 0
x_19_VF_AG 1
b_20 43
x_20_AG_LE 0
x_20_VF_LE 0
x_20_VF_AG 1
x_19_AL_LE 0
x_19_AL_AG 0
x_19_AL_VF 0
x_20_AL_LE 0
x_20_AL_AG 0
x_20_AL_VF 0
x_19_AN_LE 0
x_19_AN_AG 0
x_19_AN_VF 0
x_19_AN_AL 0
x_20_AN_LE 0
x_20_AN_AG 0
x_20_AN_VF 0
x_20_AN_AL 0
b_21 42
x_21_AG_LE 0
x_21_VF_LE 0
x_21_VF_AG 1
x_21_AL_LE 0
x_21_AL_AG 0
x_21_AL_VF 0
x_21_AN_LE 0
x_21_AN_AG 0
x_21_AN_VF 0
x_21_AN_AL 0
b_22 41
x_22_AG_LE 0
x_22_VF_LE 0
x_22_VF_AG 1
x_22_AL_LE 0
x_22_AL_AG 0
x_22_AL_VF 0
x_22_AN_LE 0
x_22_AN_AG 0
x_22_AN_VF 0
x_22_AN_AL 0
x_21_VR_LE 0
x_21_VR_AG 0
x_21_VR_VF 0
x_21_VR_AL 0
x_21_VR_AN 1
x_22_VR_LE 0
x_22_VR_AG 0
x_22_VR_VF 0
x_22_VR_AL 0
x_22_VR_AN 1
x_23_LE_SE 1
x_23_LE_ME 1
b_23 39
x_23_AG_LE 0
x_23_AG_SE 1
x_23_AG_ME 1
x_23_VF_LE 0
x_23_VF_AG 1
x_23_VF_SE 1
x_23_VF_ME 1
x_23_AL_LE 0
x_23_AL_AG 0
x_23_AL_VF 0
x_23_AL_SE 1
x_23_AL_ME 1
x_23_AN_LE 0
x_23_AN_AG 0
x_23_AN_VF 0
x_23_AN_AL 0
x_23_AN_SE 1
x_23_AN_ME 1
x_23_VR_LE 0
x_23_VR_AG 0
x_23_VR_VF 0
x_23_VR_AL 0
x_23_VR_AN 1
x_23_VR_SE 1
x_23_VR_ME 1
x_22_AA_LE 0
x_22_AA_AG 0
x_22_AA_VF 0
x_22_AA_AL 0
x_22_AA_AN 1
x_22_AA_VR 0
x_23_AA_LE 0
x_23_AA_AG 0
x_23_AA_VF 0
x_23_AA_AL 0
x_23_AA_AN 1
x_23_AA_VR 0
x_23_AA_SE 1
x_23_AA_ME 1
b_24 41
x_24_AG_LE 0
x_24_VF_LE 0
x_24_VF_AG 1
x_24_AL_LE 0
x_24_AL_AG 0
x_24_AL_VF 0
x_24_AN_LE 0
x_24_AN_AG 0
x_24_AN_VF 0
x_24_AN_AL 0
x_24_VR_LE 0
x_24_VR_AG 0
x_24_VR_VF 0
x_24_VR_AL 0
x_24_VR_AN 1
x_24_AA_LE 0
x_24_AA_AG 0
x_24_AA_VF 0
x_24_AA_AL 0
x_24_AA_AN 1
x_24_AA_VR 0
x_25_LE_MX 1
b_25 39
x_25_AG_LE 0
x_25_AG_MX 1
x_25_VF_LE 0
x_25_VF_AG 1
x_25_VF_MX 1
x_25_AL_LE 0
x_25_AL_AG 0
x_25_AL_VF 0
x_25_AL_MX 1
x_25_AN_LE 0
x_25_AN_AG 0
x_25_AN_VF 0
x_25_AN_AL 0
x_25_AN_MX 0
x_25_VR_LE 0
x_25_VR_AG 0
x_25_VR_VF 0
x_25_VR_AL 0
x_25_VR_AN 1
x_25_VR_MX 1
x_26_LE_SS 1
x_26_LE_VS 1
x_26_LE_PK 1
b_26 35
x_26_AG_LE 0
x_26_AG_SS 1
x_26_AG_VS 1
x_26_AG_PK 1
x_26_VF_LE 0
x_26_VF_AG 1
x_26_VF_SS 1
x_26_VF_VS 1
x_26_VF_PK 1
x_26_AL_LE 0
x_26_AL_AG 0
x_26_AL_VF 0
x_26_AL_SS 1
x_26_AL_VS 1
x_26_AL_PK 1
x_26_AN_LE 0
x_26_AN_AG 0
x_26_AN_VF 0
x_26_AN_AL 0
x_26_AN_SS 1
x_26_AN_VS 1
x_26_AN_PK 1
x_26_VR_LE 0
x_26_VR_AG 0
x_26_VR_VF 0
x_26_VR_AL 0
x_26_VR_AN 1
x_26_VR_SS 1
x_26_VR_VS 1
x_26_VR_PK 1
x_25_BT_LE 0
x_25_BT_AG 0
x_25_BT_VF 0
x_25_BT_AL 0
x_25_BT_AN 0
x_25_BT_VR 0
x_25_BT_MX 0
x_26_BT_LE 0
x_26_BT_AG 0
x_26_BT_VF 0
x_26_BT_AL 0
x_26_BT_AN 0
x_26_BT_VR 0
x_26_BT_SS 1
x_26_BT_VS 1
x_26_BT_PK 1
x_26_BT_SM 0
x_26_BT_LM 0
x_25_TU_LE 0
x_25_TU_AG 0
x_25_TU_VF 0
x_25_TU_AL 0
x_25_TU_AN 1
x_25_TU_VR 0
x_25_TU_BT 1
x_25_TU_MX 1
x_26_TU_LE 0
x_26_TU_AG 0
x_26_TU_VF 0
x_26_TU_AL 0
x_26_TU_AN 1
x_26_TU_VR 0
x_26_TU_BT 1
x_26_TU_SS 1
x_26_TU_VS 1
x_26_TU_PK 1
b_27 39
x_27_AG_LE 0
x_27_VF_LE 0
x_27_VF_AG 1
x_27_AL_LE 0
x_27_AL_AG 0
x_27_AL_VF 0
x_27_AN_LE 0
x_27_AN_AG 0
x_27_AN_VF 0
x_27_AN_AL 0
x_27_VR_LE 0
x_27_VR_AG 0
x_27_VR_VF 0
x_27_VR_AL 0
x_27_VR_AN 1
x_27_TU_LE 0
x_27_TU_AG 0
x_27_TU_VF 0
x_27_TU_AL 0
x_27_TU_AN 1
x_27_TU_VR 0
x_26_SM_LE 0
x_26_SM_AG 0
x_26_SM_VF 0
x_26_SM_AL 0
x_26_SM_AN 1
x_26_SM_VR 0
x_26_SM_BT 1
x_26_SM_TU 0
x_26_SM_SS 1
x_26_SM_VS 1
x_26_SM_PK 1
x_27_SM_LE 0
x_27_SM_AG 0
x_27_SM_VF 0
x_27_SM_AL 0
x_27_SM_AN 1
x_27_SM_VR 0
x_27_SM_TU 0
x_26_LM_LE 0
x_26_LM_AG 0
x_26_LM_VF 0
x_26_LM_AL 0
x_26_LM_AN 0
x_26_LM_VR 0
x_26_LM_BT 1
x_26_LM_TU 0
x_26_LM_SS 1
x_26_LM_VS 1
x_26_LM_PK 1
x_26_LM_SM 0
x_27_LM_LE 0
x_27_LM_AG 0
x_27_LM_VF 0
x_27_LM_AL 0
x_27_LM_AN 0
x_27_LM_VR 0
x_27_LM_TU 0
x_27_LM_SM 0
b_28 40
x_28_AG_LE 0
x_28_VF_LE 0
x_28_VF_AG 1
x_28_AL_LE 0
x_28_AL_AG 0
x_28_AL_VF 0
x_28_AN_LE 0
x_28_AN_AG 0
x_28_AN_VF 0
x_28_AN_AL 0
x_28_VR_LE 0
x_28_VR_AG 0
x_28_VR_VF 0
x_28_VR_AL 0
x_28_VR_AN 0
x_28_SM_LE 0
x_28_SM_AG 0
x_28_SM_VF 0
x_28_SM_AL 0
x_28_SM_AN 1
x_28_SM_VR 1
b_29 40
x_29_AG_LE 0
x_29_VF_LE 0
x_29_VF_AG 1
x_29_AL_LE 0
x_29_AL_AG 0
x_29_AL_VF 0
x_29_AN_LE 0
x_29_AN_AG 0
x_29_AN_VF 0
x_29_AN_AL 0
x_29_VR_LE 0
x_29_VR_AG 0
x_29_VR_VF 0
x_29_VR_AL 0
x_29_VR_AN 0
x_29_SM_LE 0
x_29_SM_AG 0
x_29_SM_VF 0
x_29_SM_AL 0
x_29_SM_AN 1
x_29_SM_VR 1
x_28_PT_LE 0
x_28_PT_AG 0
x_28_PT_VF 0
x_28_PT_AL 0
x_28_PT_AN 0
x_28_PT_VR 0
x_28_PT_SM 0
x_29_PT_LE 0
x_29_PT_AG 0
x_29_PT_VF 0
x_29_PT_AL 0
x_29_PT_AN 0
x_29_PT_VR 0
x_29_PT_SM 0
x_30_LE_CD 1
x_30_LE_SP 1
x_30_LE_YV 1
b_30 37
x_30_AG_LE 0
x_30_AG_CD 1
x_30_AG_SP 1
x_30_AG_YV 1
x_30_VF_LE 0
x_30_VF_AG 1
x_30_VF_CD 1
x_30_VF_SP 1
x_30_VF_YV 1
x_30_AL_LE 0
x_30_AL_AG 0
x_30_AL_VF 0
x_30_AL_CD 1
x_30_AL_SP 1
x_30_AL_YV 1
x_30_AN_LE 0
x_30_AN_AG 0
x_30_AN_VF 0
x_30_AN_CD 1
x_30_AN_SP 1
x_30_AN_YV 1
x_30_AN_AL 0
x_30_VR_LE 0
x_30_VR_AG 0
x_30_VR_VF 0
x_30_VR_CD 1
x_30_VR_SP 1
x_30_VR_YV 1
x_30_VR_AL 0
x_30_VR_AN 0
x_30_SM_LE 0
x_30_SM_AG 0
x_30_SM_VF 0
x_30_SM_CD 1
x_30_SM_SP 1
x_30_SM_YV 1
x_30_SM_AL 0
x_30_SM_AN 1
x_30_SM_VR 1
x_30_PT_LE 0
x_30_PT_AG 0
x_30_PT_VF 0
x_30_PT_CD 1
x_30_PT_SP 1
x_30_PT_YV 1
x_30_PT_AL 0
x_30_PT_AN 0
x_30_PT_VR 0
x_30_PT_SM 0
b_31 41
x_31_AG_LE 0
x_31_VF_LE 0
x_31_VF_AG 1
x_31_AL_LE 0
x_31_AL_AG 0
x_31_AL_VF 0
x_31_AN_LE 0
x_31_AN_AG 0
x_31_AN_VF 0
x_31_AN_AL 0
x_31_VR_LE 0
x_31_VR_AG 0
x_31_VR_VF 0
x_31_VR_AL 0
x_31_VR_AN 0
x_31_SM_LE 0
x_31_SM_AG 0
x_31_SM_VF 0
x_31_SM_AL 0
x_31_SM_AN 1
x_31_SM_VR 1
b_32 42
x_32_AG_LE 0
x_32_VF_LE 0
x_32_VF_AG 1
x_32_AL_LE 0
x_32_AL_AG 0
x_32_AL_VF 0
x_32_AN_LE 0
x_32_AN_AG 0
x_32_AN_VF 0
x_32_AN_AL 0
x_32_SM_LE 0
x_32_SM_AG 0
x_32_SM_VF 0
x_32_SM_AL 0
x_32_SM_AN 1
b_33 43
x_33_AG_LE 0
x_33_VF_LE 0
x_33_VF_AG 1
x_33_AL_LE 0
x_33_AL_AG 0
x_33_AL_VF 0
x_33_AN_LE 0
x_33_AN_AG 0
x_33_AN_VF 0
x_33_AN_AL 0
b_34 45
x_34_AG_LE 0
x_34_VF_LE 0
x_34_VF_AG 1
b_35 45
x_35_AG_LE 0
x_35_VF_LE 0
x_35_VF_AG 1
x_36_LE_MZ 0
x_36_LE_NT 0
b_36 45
x_36_AG_LE 0
x_36_AG_MZ 0
x_36_AG_NT 0
x_36_VF_LE 0
x_36_VF_AG 1
x_36_VF_MZ 0
x_36_VF_NT 0
x_37_LE_MP 0
x_37_LE_SN 0
b_37 45
x_37_AG_LE 0
x_37_AG_MP 0
x_37_AG_SN 0
x_37_VF_LE 0
x_37_VF_AG 1
x_37_VF_MP 0
x_37_VF_SN 0
x_36_SV_LE 1
x_36_SV_AG 1
x_36_SV_VF 1
x_36_SV_MZ 0
x_36_SV_NT 0
x_37_SV_LE 1
x_37_SV_AG 1
x_37_SV_VF 1
x_37_SV_MP 0
x_37_SV_SN 0
b_38 45
x_38_AG_LE 0
x_38_VF_LE 0
x_38_VF_AG 1
x_38_SV_LE 1
x_38_SV_AG 1
x_38_SV_VF 1
b_39 45
x_39_AG_LE 0
x_39_VF_LE 0
x_39_VF_AG 1
x_40_LE_IV 0
b_40 45
x_40_AG_LE 0
x_40_AG_IV 0
x_40_VF_LE 0
x_40_VF_AG 1
x_40_VF_IV 0
x_41_LE_FR 0
b_41 45
x_41_AG_LE 0
x_41_AG_FR 0
x_41_VF_LE 0
x_41_VF_AG 1
x_41_VF_FR 0
x_42_LE_SU 0
b_42 45
x_42_AG_LE 0
x_42_AG_SU 0
x_42_VF_LE 0
x_42_VF_AG 1
x_42_VF_SU 0
b_43 45
x_43_AG_LE 0
x_43_VF_LE 0
x_43_VF_AG 1
b_44 45
x_44_AG_LE 0
b_45 45
x_45_AG_LE 0
x_45_AG_NI 0
b_46 46
x_45_NI_LE 1
x_45_NI_AG 1
x_46_NI_LE 1
b_47 46
x_47_LE_NS 0
x_6_TT_KO 0
x_6_TT_LE 1
x_6_TT_AG 1
x_6_TT_VF 1
x_7_MK_KO 0
x_7_PY_KO 0
x_7_MK_LE 1
x_7_PY_LE 1
x_7_MK_AG 1
x_7_PY_AG 1
x_7_MK_VF 1
x_7_PY_VF 1
x_7_MK_PY 0
x_7_PY_MK 1
x_8_KZ_KO 0
x_8_KZ_LE 1
x_8_KZ_AG 1
x_8_KZ_VF 1
x_9_ST_LE 1
x_9_ST_AG 1
x_9_ST_VF 1
x_9_ST_DO 0
x_12_AO_LE 1
x_12_AO_AG 1
x_12_AO_VF 1
x_12_AO_DO 1
x_12_AO_PH 1
x_12_AO_TA 1
x_12_AO_HO 0
x_12_AO_LL 1
x_13_NL_LE 1
x_13_NL_AG 1
x_13_NL_VF 1
x_13_NL_DO 1
x_13_NL_PH 1
x_13_NL_TA 1
x_13_NL_HO 1
x_13_NL_LL 1
x_13_NL_GR 1
x_17_PA_LE 1
x_17_PA_AG 1
x_17_PA_VF 1
x_17_PA_DO 0
x_23_SE_LE 0
x_23_ME_LE 0
x_23_SE_AG 0
x_23_ME_AG 0
x_23_SE_VF 0
x_23_ME_VF 0
x_23_SE_AL 0
x_23_ME_AL 0
x_23_SE_AN 0
x_23_ME_AN 0
x_23_SE_VR 0
x_23_ME_VR 0
x_23_SE_AA 0
x_23_ME_AA 0
x_23_SE_ME 0
x_23_ME_SE 1
x_25_MX_LE 0
x_25_MX_AG 0
x_25_MX_VF 0
x_25_MX_AL 0
x_25_MX_AN 1
x_25_MX_VR 0
x_25_MX_BT 1
x_25_MX_TU 0
x_26_SS_LE 0
x_26_VS_LE 0
x_26_PK_LE 0
x_26_SS_AG 0
x_26_VS_AG 0
x_26_PK_AG 0
x_26_SS_VF 0
x_26_VS_VF 0
x_26_PK_VF 0
x_26_SS_AL 0
x_26_VS_AL 0
x_26_PK_AL 0
x_26_SS_AN 0
x_26_VS_AN 0
x_26_PK_AN 0
x_26_SS_VR 0
x_26_VS_VR 0
x_26_PK_VR 0
x_26_SS_BT 0
x_26_VS_BT 0
x_26_PK_BT 0
x_26_SS_TU 0
x_26_VS_TU 0
x_26_PK_TU 0
x_26_SS_VS 0
x_26_VS_SS 1
x_26_SS_PK 0
x_26_PK_SS 1
x_26_SS_SM 0
x_26_SS_LM 0
x_26_VS_PK 1
x_26_PK_VS 0
x_26_VS_SM 0
x_26_VS_LM 0
x_26_PK_SM 0
x_26_PK_LM 0
x_30_CD_LE 0
x_30_SP_LE 0
x_30_YV_LE 0
x_30_CD_AG 0
x_30_SP_AG 0
x_30_YV_AG 0
x_30_CD_VF 0
x_30_SP_VF 0
x_30_YV_VF 0
x_30_CD_AL 0
x_30_SP_AL 0
x_30_YV_AL 0
x_30_CD_AN 0
x_30_SP_AN 0
x_30_YV_AN 0
x_30_CD_VR 0
x_30_SP_VR 0
x_30_YV_VR 0
x_30_CD_SM 0
x_30_SP_SM 0
x_30_YV_SM 0
x_30_CD_PT 0
x_30_SP_PT 0
x_30_YV_PT 0
x_30_CD_SP 0
x_30_SP_CD 1
x_30_CD_YV 1
x_30_YV_CD 0
x_30_SP_YV 1
x_30_YV_SP 0
x_36_MZ_LE 1
x_36_NT_LE 1
x_36_MZ_AG 1
x_36_NT_AG 1
x_36_MZ_VF 1
x_36_NT_VF 1
x_36_MZ_SV 1
x_36_NT_SV 1
x_36_MZ_NT 0
x_36_NT_MZ 1
x_37_MP_LE 1
x_37_SN_LE 1
x_37_MP_AG 1
x_37_SN_AG 1
x_37_MP_VF 1
x_37_SN_VF 1
x_37_MP_SV 1
x_37_SN_SV 1
x_37_MP_SN 0
x_37_SN_MP 1
x_40_IV_LE 1
x_40_IV_AG 1
x_40_IV_VF 1
x_41_FR_LE 1
x_41_FR_AG 1
x_41_FR_VF 1
x_42_SU_LE 1
x_42_SU_AG 1
x_42_SU_VF 1
x_47_NS_LE 1
